(set-logic HORN)
(set-info :source |
    Benchmark: C_VC
    Output by Princess (http://www.philipp.ruemmer.org/princess.shtml)
|)
(set-info :status sat)
;===============================================================================
; Encoding of Heap sorts and operations
;-------------------------------------------------------------------------------
(define-sort Addr() Int)
(declare-datatypes ((AddrRange 0))
                   (((AddrRange (AddrRangeStart Addr) (AddrRangeSize Int)))))

(declare-datatypes ((HeapObject 0) (node 0))
                   (((O_Int (getInt Int)) (O_UInt (getUInt Int)) (O_Addr (getAddr Addr)) (O_node (getnode node)) (defObj))
                   ((node (next Addr) (prev Addr) (data Int)))))
(declare-datatypes ((BatchAllocResHeap 0) (AllocResHeap 0) (Heap 0))
                   (((BatchAllocResHeap   (newBatchHeap Heap) (newAddrRange AddrRange)))
                   ((AllocResHeap   (newHeap Heap) (newAddr Addr)))
                    ((HeapCtor (HeapSize Int)
                               (HeapContents (Array Addr HeapObject))))))
(define-fun nullAddr  () Addr 0)
(define-fun validHeap     ((h Heap) (p Addr)) Bool
  (and (>= (HeapSize h) p) (> p 0)))
(define-fun emptyHeap () Heap (
  HeapCtor 0 (( as const (Array Addr HeapObject)) defObj)))
(define-fun readHeap ((h Heap) (p Addr)) HeapObject
  (ite (validHeap h p)
       (select (HeapContents h) p)
       defObj))
(define-fun writeHeap ((h Heap) (p Addr) (o HeapObject)) Heap
  (ite (validHeap h p)
       (HeapCtor (HeapSize h) (store (HeapContents h) p o))
       h))
(define-fun allocHeap   ((h Heap) (o HeapObject)) AllocResHeap
  (AllocResHeap (HeapCtor (+ 1 (HeapSize h))
                    (store (HeapContents h) (+ 1 (HeapSize h)) o))
          (+ 1 (HeapSize h))))
(define-fun Heap-eq     ((h1 Heap) (h2 Heap)) Bool
  (forall ((p Addr))
          (and (= (validHeap h1 p) (validHeap h2 p))
               (= (readHeap h1 p) (readHeap h2 p)))))
(define-fun nthAddrRange((ar AddrRange) (n Int)) Addr
  (ite (and (>= n 0) (< n (AddrRangeSize ar)))
       (+ (AddrRangeStart ar) n)
       nullAddr))
(define-fun withinHeap ((ar AddrRange ) (p Addr)) Bool
  (and (>= p (AddrRangeStart ar)) (< p (+ (AddrRangeStart ar) (AddrRangeSize ar)))))

(declare-fun batchAllocHeap     (Heap Heap HeapObject Int Int) Bool)
(declare-fun batchAllocPostHeap (Heap Heap HeapObject Int) Bool)

(assert (forall ((h1 Heap) (h2 Heap) (o HeapObject) (n1 Int) (n2 Int))
                (=> (and (> n2 0) (batchAllocHeap h1 h2 o n1 n2))
                   (batchAllocHeap h1 (newHeap (allocHeap h2 o)) o n1 (- n2 1)))))
(assert (forall ((h1 Heap) (h2 Heap) (o HeapObject) (n1 Int) (n2 Int))
                (=> (and (<= n2 0) (batchAllocHeap h1 h2 o n1 n2))
                   (batchAllocPostHeap h1 h2 o n1))))

(declare-fun batchWriteHeap     (Heap Heap Addr Addr HeapObject Int Int) Bool)
(declare-fun batchWritePostHeap (Heap Heap Addr HeapObject Int) Bool)

(assert (forall ((h1 Heap) (h2 Heap) (a1 Addr) (a2 Addr) (o HeapObject) (n1 Int) (n2 Int))
                (=> (and (> n2 0) (batchWriteHeap h1 h2 a1 a2 o n1 n2))
                   (batchWriteHeap h1 (writeHeap h2 a2 o) a1 (+ a2 1) o n1 (- n2 1)))))
(assert (forall ((h1 Heap) (h2 Heap) (a1 Addr) (a2 Addr) (o HeapObject) (n1 Int) (n2 Int))
                (=> (and (<= n2 0) (batchWriteHeap h1 h2 a1 a2 o n1 n2))
                   (batchWritePostHeap h1 h2 a1 o n1))))

;===============================================================================
(declare-fun inv_main101 (Heap Int Int Addr Int Addr Int Addr Addr) Bool)
(declare-fun inv_main104 (Heap Int Int Addr Int Addr Int) Bool)
(declare-fun inv_main12 (Heap Int Int Int Int Int Addr) Bool)
(declare-fun inv_main15 (Heap Int Int Int Int Int Addr Int) Bool)
(declare-fun inv_main18 (Heap Int Int Int Int Int Addr) Bool)
(declare-fun inv_main19 (Heap Int Int Int Int Int Addr) Bool)
(declare-fun inv_main22 (Heap Int Int Int Int Addr Addr) Bool)
(declare-fun inv_main23 (Heap Int Int Int Int Addr Addr) Bool)
(declare-fun inv_main29 (Heap Int Int Int Int Addr Addr Int Addr) Bool)
(declare-fun inv_main32 (Heap Int Int Int Int Addr Addr Int Addr Int) Bool)
(declare-fun inv_main35 (Heap Int Int Int Int Addr Addr Int Addr) Bool)
(declare-fun inv_main36 (Heap Int Int Int Int Addr Addr Int Addr) Bool)
(declare-fun inv_main38 (Heap Int Int Int Int Addr Addr Addr) Bool)
(declare-fun inv_main4 (Heap Int Int) Bool)
(declare-fun inv_main41 (Heap Int Int Int Int Addr Addr Addr) Bool)
(declare-fun inv_main44 (Heap Int Int Int Int Addr Addr) Bool)
(declare-fun inv_main56 (Heap Int Int Addr Int Int Int Int Addr) Bool)
(declare-fun inv_main59 (Heap Int Int Addr Int Int Int Int Addr Int) Bool)
(declare-fun inv_main62 (Heap Int Int Addr Int Int Int Int Addr) Bool)
(declare-fun inv_main63 (Heap Int Int Addr Int Int Int Int Addr) Bool)
(declare-fun inv_main67 (Heap Int Int Addr Int Int Int Addr) Bool)
(declare-fun inv_main68 (Heap Int Int Addr Int Int Int Addr) Bool)
(declare-fun inv_main69 (Heap Int Int Addr Int Int Int Addr) Bool)
(declare-fun inv_main72 (Heap Int Int Addr Int Int Int Addr Addr Addr) Bool)
(declare-fun inv_main73 (Heap Int Int Addr Int Int Int Addr Addr Addr) Bool)
(declare-fun inv_main74 (Heap Int Int Addr Int Int Int Addr Addr Addr) Bool)
(declare-fun inv_main75 (Heap Int Int Addr Int Int Int Addr Addr Addr) Bool)
(declare-fun inv_main76 (Heap Int Int Addr Int Addr) Bool)
(declare-fun inv_main77 (Heap Int Int Addr Int Addr) Bool)
(declare-fun inv_main82 (Heap Int Int Addr Int Addr Int) Bool)
(declare-fun inv_main85 (Heap Int Int Addr Int Addr Int) Bool)
(declare-fun inv_main97 (Heap Int Int Addr Int Addr Int Addr) Bool)
(assert (forall ((var0 Heap)) (or (not (= var0 emptyHeap)) (inv_main4 var0 2 1))))
(assert (forall ((var0 Int) (var1 Addr) (var2 Addr) (var3 Int) (var4 Int) (var5 Int) (var6 Int) (var7 node) (var8 Heap) (var9 Addr) (var10 Addr) (var11 Addr) (var12 Int) (var13 Int) (var14 Int) (var15 Int) (var16 Heap)) (or (not (and (and (and (and (and (and (and (and (and (and (and (inv_main22 var16 var15 var14 var13 var12 var11 var10) (<= 0 (+ (+ (* (- 1) 1) var13) (* (- 1) 1)))) (= var9 (newAddr (allocHeap var16 (O_node var7))))) (= var0 var12)) (= var1 var10)) (= var2 var11)) (= var3 var12)) (= var4 var13)) (= var5 var14)) (= var6 var15)) (= var8 (newHeap (allocHeap var16 (O_node var7))))) (not (= nullAddr var9)))) (inv_main29 var8 var6 var5 var4 var3 var2 var1 var0 var9))))
(assert (forall ((var0 Addr) (var1 Int) (var2 Addr) (var3 Addr) (var4 Int) (var5 Int) (var6 Int) (var7 Int) (var8 Heap)) (or (not (and (and (inv_main29 var8 var7 var6 var5 var4 var3 var2 var1 var0) (is-O_node (readHeap var8 var0))) (is-O_node (readHeap var8 var0)))) (inv_main35 (writeHeap var8 var0 (O_node (node nullAddr (prev (getnode (readHeap var8 var0))) (data (getnode (readHeap var8 var0)))))) var7 var6 var5 var4 var3 var2 var1 var0))))
(assert (forall ((var0 Addr) (var1 Addr) (var2 Int) (var3 Int) (var4 Int) (var5 Int) (var6 Heap)) (or (not (and (inv_main22 var6 var5 var4 var3 var2 var1 var0) (not (<= 0 (+ (+ (* (- 1) 1) var3) (* (- 1) 1)))))) (inv_main23 var6 var5 var4 var3 var2 var1 var0))))
(assert (forall ((var0 Int) (var1 Addr) (var2 Int) (var3 Int) (var4 Int) (var5 Heap) (var6 Addr) (var7 Addr) (var8 Int) (var9 Addr) (var10 Int) (var11 Addr) (var12 Int) (var13 Int) (var14 Heap)) (or (not (and (and (and (and (and (and (and (and (and (and (inv_main85 var14 var13 var12 var11 var10 var9 var8) (= var7 (next (getnode (readHeap var14 var9))))) (= var0 var8)) (= var1 var9)) (= var2 var10)) (= var6 var11)) (= var3 var12)) (= var4 var13)) (= var5 var14)) (is-O_node (readHeap var14 var9))) (not (= var7 var6)))) (inv_main82 var5 var4 var3 var6 var2 var7 (+ var0 1)))))
(assert (forall ((var0 Addr) (var1 Addr) (var2 Int) (var3 Addr) (var4 Int) (var5 Int) (var6 Heap) (var7 Addr) (var8 Int) (var9 Addr) (var10 Int) (var11 Int) (var12 Heap)) (or (not (and (and (and (and (and (and (and (and (inv_main77 var12 var11 var10 var9 var8 var7) (= var0 (next (getnode (readHeap var12 var7))))) (= var1 var7)) (= var2 var8)) (= var3 var9)) (= var4 var10)) (= var5 var11)) (= var6 var12)) (is-O_node (readHeap var12 var7)))) (inv_main82 var6 var5 var4 var3 var2 var0 1))))
(assert (forall ((var0 Addr) (var1 Int) (var2 Int) (var3 Int) (var4 Int) (var5 Addr) (var6 Int) (var7 Int) (var8 Heap)) (or (not (and (and (inv_main62 var8 var7 var6 var5 var4 var3 var2 var1 var0) (is-O_node (readHeap var8 var0))) (is-O_node (readHeap var8 var0)))) (inv_main63 (writeHeap var8 var0 (O_node (node (next (getnode (readHeap var8 var0))) nullAddr (data (getnode (readHeap var8 var0)))))) var7 var6 var5 var4 var3 var2 var1 var0))))
(assert (forall ((var0 Addr) (var1 Int) (var2 Int) (var3 Int) (var4 Int) (var5 Int) (var6 Int) (var7 Heap) (var8 Addr) (var9 Addr) (var10 Int) (var11 Int) (var12 Int) (var13 Int) (var14 Addr) (var15 Int) (var16 Int) (var17 Heap)) (or (not (and (and (and (and (and (and (and (and (and (and (and (and (inv_main63 var17 var16 var15 var14 var13 var12 var11 var10 var9) (= var0 var9)) (= var1 var10)) (= var2 var11)) (= var3 var12)) (= var4 var13)) (= var8 var14)) (= var5 var15)) (= var6 var16)) (= var7 (writeHeap var17 var9 (O_node (node (next (getnode (readHeap var17 var9))) (prev (getnode (readHeap var17 var9))) var10))))) (is-O_node (readHeap var17 var9))) (is-O_node (readHeap var17 var9))) (= nullAddr var8))) (inv_main68 var7 var6 var5 var0 var4 var3 var2 var0))))
(assert (forall ((var0 Addr) (var1 Int) (var2 Addr) (var3 Addr) (var4 Int) (var5 Int) (var6 Int) (var7 Int) (var8 Heap)) (or (not (and (and (inv_main35 var8 var7 var6 var5 var4 var3 var2 var1 var0) (is-O_node (readHeap var8 var0))) (is-O_node (readHeap var8 var0)))) (inv_main36 (writeHeap var8 var0 (O_node (node (next (getnode (readHeap var8 var0))) nullAddr (data (getnode (readHeap var8 var0)))))) var7 var6 var5 var4 var3 var2 var1 var0))))
(assert (forall ((var0 Addr) (var1 Int) (var2 Addr) (var3 Int) (var4 Int) (var5 Heap)) (or (not (and (and (inv_main76 var5 var4 var3 var2 var1 var0) (= var1 (data (getnode (readHeap var5 var0))))) (is-O_node (readHeap var5 var0)))) (inv_main77 var5 var4 var3 var2 var1 var0))))
(assert (forall ((var0 Addr) (var1 Int) (var2 Int) (var3 Int) (var4 Int) (var5 Int) (var6 Heap)) (or (not (and (and (inv_main18 var6 var5 var4 var3 var2 var1 var0) (is-O_node (readHeap var6 var0))) (is-O_node (readHeap var6 var0)))) (inv_main19 (writeHeap var6 var0 (O_node (node (next (getnode (readHeap var6 var0))) nullAddr (data (getnode (readHeap var6 var0)))))) var5 var4 var3 var2 var1 var0))))
(assert (forall ((var0 Int) (var1 Addr) (var2 Int) (var3 Addr) (var4 Addr) (var5 Int) (var6 Int) (var7 Int) (var8 Int) (var9 Heap)) (or (not (inv_main32 var9 var8 var7 var6 var5 var4 var3 var2 var1 var0)) (inv_main32 var9 var8 var7 var6 var5 var4 var3 var2 var1 var0))))
(assert (forall ((var0 Int) (var1 Addr) (var2 Addr) (var3 Int) (var4 Int) (var5 Int) (var6 Int) (var7 node) (var8 Heap) (var9 Addr) (var10 Addr) (var11 Addr) (var12 Int) (var13 Int) (var14 Int) (var15 Int) (var16 Heap)) (or (not (and (and (and (and (and (and (and (and (and (and (and (inv_main22 var16 var15 var14 var13 var12 var11 var10) (<= 0 (+ (+ (* (- 1) 1) var13) (* (- 1) 1)))) (= var9 (newAddr (allocHeap var16 (O_node var7))))) (= var0 var12)) (= var1 var10)) (= var2 var11)) (= var3 var12)) (= var4 var13)) (= var5 var14)) (= var6 var15)) (= var8 (newHeap (allocHeap var16 (O_node var7))))) (= nullAddr var9))) (inv_main32 var8 var6 var5 var4 var3 var2 var1 var0 var9 1))))
(assert (forall ((var0 Int) (var1 Addr) (var2 Int) (var3 Addr) (var4 Int) (var5 Int) (var6 Heap)) (or (not (and (and (inv_main82 var6 var5 var4 var3 var2 var1 var0) (not (= var4 (data (getnode (readHeap var6 var1)))))) (is-O_node (readHeap var6 var1)))) (inv_main104 var6 var5 var4 var3 var2 var1 var0))))
(assert (forall ((var0 Addr) (var1 Int) (var2 Int) (var3 Heap) (var4 Addr) (var5 Addr) (var6 Int) (var7 Int) (var8 Int) (var9 Addr) (var10 Int) (var11 Addr) (var12 Int) (var13 Int) (var14 Heap)) (or (not (and (and (and (and (and (and (and (and (and (and (and (inv_main85 var14 var13 var12 var11 var10 var9 var8) (= var5 (next (getnode (readHeap var14 var9))))) (= var7 var8)) (= var0 var9)) (= var1 var10)) (= var4 var11)) (= var2 var12)) (= var6 var13)) (= var3 var14)) (is-O_node (readHeap var14 var9))) (= var5 var4)) (not (= (+ var7 1) (+ 1 var6))))) (inv_main104 var3 var6 var2 var4 var1 var5 (+ var7 1)))))
(assert (forall ((var0 Int) (var1 Addr) (var2 Int) (var3 Addr) (var4 Int) (var5 Int) (var6 Heap)) (or (not (and (and (inv_main76 var6 var5 var4 var3 var2 var1) (not (= var2 (data (getnode (readHeap var6 var1)))))) (is-O_node (readHeap var6 var1)))) (inv_main104 var6 var5 var4 var3 var2 var1 var0))))
(assert (forall ((var0 Addr) (var1 Int) (var2 Int) (var3 Heap) (var4 Addr) (var5 Int) (var6 Int) (var7 Addr) (var8 Int) (var9 Addr) (var10 Int) (var11 Addr) (var12 Int) (var13 Int) (var14 Heap)) (or (not (and (and (and (and (and (and (and (and (and (and (and (and (inv_main85 var14 var13 var12 var11 var10 var9 var8) (= var4 (next (getnode (readHeap var14 var9))))) (= var6 var8)) (= var0 var9)) (= var1 var10)) (= var7 var11)) (= var2 var12)) (= var5 var13)) (= var3 var14)) (is-O_node (readHeap var14 var9))) (= var4 var7)) (= (+ var6 1) (+ 1 var5))) (not (= nullAddr var7)))) (inv_main97 var3 var5 var2 var7 var1 var4 (+ var6 1) var7))))
(assert (forall ((var0 Addr) (var1 Addr) (var2 Addr) (var3 Int) (var4 Int) (var5 Int) (var6 Int) (var7 Heap) (var8 Addr) (var9 Addr) (var10 Addr) (var11 Int) (var12 Int) (var13 Int) (var14 Int) (var15 Heap)) (or (not (and (and (and (and (and (and (and (and (and (and (inv_main41 var15 var14 var13 var12 var11 var10 var9 var8) (= var0 var8)) (= var1 var9)) (= var2 var10)) (= var3 var11)) (= var4 var12)) (= var5 var13)) (= var6 var14)) (= var7 (writeHeap var15 var10 (O_node (node (next (getnode (readHeap var15 var10))) var8 (data (getnode (readHeap var15 var10)))))))) (is-O_node (readHeap var15 var10))) (is-O_node (readHeap var15 var10)))) (inv_main22 var7 var6 var5 (+ var4 (* (- 1) 1)) var3 var0 var1))))
(assert (forall ((var0 Addr) (var1 Addr) (var2 Int) (var3 Int) (var4 Int) (var5 Int) (var6 Heap) (var7 Addr) (var8 Addr) (var9 Addr) (var10 Addr) (var11 Int) (var12 Int) (var13 Int) (var14 Int) (var15 Heap)) (or (not (and (and (and (and (and (and (and (and (and (and (and (inv_main38 var15 var14 var13 var12 var11 var10 var9 var8) (= var0 var8)) (= var1 var9)) (= var7 var10)) (= var2 var11)) (= var3 var12)) (= var4 var13)) (= var5 var14)) (= var6 (writeHeap var15 var8 (O_node (node var10 (prev (getnode (readHeap var15 var8))) (data (getnode (readHeap var15 var8)))))))) (is-O_node (readHeap var15 var8))) (is-O_node (readHeap var15 var8))) (= var7 nullAddr))) (inv_main22 var6 var5 var4 (+ var3 (* (- 1) 1)) var2 var0 var1))))
(assert (forall ((var0 Addr) (var1 Int) (var2 Int) (var3 Int) (var4 Int) (var5 Int) (var6 Heap) (var7 Addr) (var8 Int) (var9 Int) (var10 Int) (var11 Int) (var12 Int) (var13 Heap)) (or (not (and (and (and (and (and (and (and (and (and (inv_main19 var13 var12 var11 var10 var9 var8 var7) (= var0 var7)) (= var1 var8)) (= var2 var9)) (= var3 var10)) (= var4 var11)) (= var5 var12)) (= var6 (writeHeap var13 var7 (O_node (node (next (getnode (readHeap var13 var7))) (prev (getnode (readHeap var13 var7))) var8))))) (is-O_node (readHeap var13 var7))) (is-O_node (readHeap var13 var7)))) (inv_main22 var6 var5 var4 var3 var2 var0 var0))))
(assert (forall ((var0 Int) (var1 Int) (var2 Int) (var3 Int) (var4 Int) (var5 node) (var6 Heap) (var7 Addr) (var8 Int) (var9 Int) (var10 Heap)) (or (not (and (and (and (and (and (and (and (and (inv_main4 var10 var9 var8) (= var7 (newAddr (allocHeap var10 (O_node var5))))) (= var0 var8)) (= var1 var8)) (= var2 var9)) (= var3 var8)) (= var4 var9)) (= var6 (newHeap (allocHeap var10 (O_node var5))))) (not (= nullAddr var7)))) (inv_main12 var6 var4 var3 var2 var1 var0 var7))))
(assert (forall ((var0 Addr) (var1 Int) (var2 Int) (var3 Int) (var4 Int) (var5 Int) (var6 Int) (var7 Addr) (var8 Addr) (var9 Int) (var10 Int) (var11 Int) (var12 Int) (var13 node) (var14 Heap) (var15 Heap) (var16 Addr) (var17 Addr) (var18 Addr) (var19 Int) (var20 Int) (var21 Int) (var22 Int) (var23 Heap)) (or (not (and (and (and (and (and (and (and (and (and (and (and (and (and (and (and (and (and (and (and (inv_main44 var23 var22 var21 var20 var19 var18 var17) (= var0 var17)) (= var7 var18)) (= var1 var19)) (= var2 var20)) (= var9 var21)) (= var11 var22)) (= var14 (writeHeap var23 var18 (O_node (node (next (getnode (readHeap var23 var18))) var17 (data (getnode (readHeap var23 var18)))))))) (is-O_node (readHeap var23 var18))) (is-O_node (readHeap var23 var18))) (= var16 (newAddr (allocHeap var14 (O_node var13))))) (= var3 5)) (= var4 5)) (= var5 3)) (= var6 5)) (= var8 var7)) (= var10 var9)) (= var12 var11)) (= var15 (newHeap (allocHeap var14 (O_node var13))))) (not (= nullAddr var16)))) (inv_main56 var15 var12 var10 var8 var6 var5 var4 var3 var16))))
(assert (forall ((var0 Addr) (var1 Int) (var2 Int) (var3 Int) (var4 Int) (var5 Addr) (var6 Int) (var7 Int) (var8 Heap)) (or (not (and (and (inv_main56 var8 var7 var6 var5 var4 var3 var2 var1 var0) (is-O_node (readHeap var8 var0))) (is-O_node (readHeap var8 var0)))) (inv_main62 (writeHeap var8 var0 (O_node (node nullAddr (prev (getnode (readHeap var8 var0))) (data (getnode (readHeap var8 var0)))))) var7 var6 var5 var4 var3 var2 var1 var0))))
(assert (forall ((var0 Int) (var1 Addr) (var2 Int) (var3 Int) (var4 Int) (var5 Int) (var6 Addr) (var7 Int) (var8 Int) (var9 Heap)) (or (not (inv_main59 var9 var8 var7 var6 var5 var4 var3 var2 var1 var0)) (inv_main59 var9 var8 var7 var6 var5 var4 var3 var2 var1 var0))))
(assert (forall ((var0 Addr) (var1 Int) (var2 Int) (var3 Int) (var4 Int) (var5 Int) (var6 Int) (var7 Addr) (var8 Addr) (var9 Int) (var10 Int) (var11 Int) (var12 Int) (var13 node) (var14 Heap) (var15 Heap) (var16 Addr) (var17 Addr) (var18 Addr) (var19 Int) (var20 Int) (var21 Int) (var22 Int) (var23 Heap)) (or (not (and (and (and (and (and (and (and (and (and (and (and (and (and (and (and (and (and (and (and (inv_main44 var23 var22 var21 var20 var19 var18 var17) (= var0 var17)) (= var7 var18)) (= var1 var19)) (= var2 var20)) (= var9 var21)) (= var11 var22)) (= var14 (writeHeap var23 var18 (O_node (node (next (getnode (readHeap var23 var18))) var17 (data (getnode (readHeap var23 var18)))))))) (is-O_node (readHeap var23 var18))) (is-O_node (readHeap var23 var18))) (= var16 (newAddr (allocHeap var14 (O_node var13))))) (= var3 5)) (= var4 5)) (= var5 3)) (= var6 5)) (= var8 var7)) (= var10 var9)) (= var12 var11)) (= var15 (newHeap (allocHeap var14 (O_node var13))))) (= nullAddr var16))) (inv_main59 var15 var12 var10 var8 var6 var5 var4 var3 var16 1))))
(assert (forall ((var0 Addr) (var1 Addr) (var2 Int) (var3 Int) (var4 Int) (var5 Addr) (var6 Int) (var7 Int) (var8 Heap) (var9 Addr) (var10 Int) (var11 Int) (var12 Int) (var13 Addr) (var14 Int) (var15 Int) (var16 Heap)) (or (not (and (and (and (and (and (and (and (and (and (and (inv_main67 var16 var15 var14 var13 var12 var11 var10 var9) (= var0 (prev (getnode (readHeap var16 var13))))) (= var1 var9)) (= var2 var10)) (= var3 var11)) (= var4 var12)) (= var5 var13)) (= var6 var14)) (= var7 var15)) (= var8 var16)) (is-O_node (readHeap var16 var13)))) (inv_main72 var8 var7 var6 var1 var4 var3 var2 var1 var0 var5))))
(assert (forall ((var0 Int) (var1 Addr) (var2 Int) (var3 Addr) (var4 Int) (var5 Int) (var6 Heap) (var7 Addr) (var8 Addr) (var9 Addr) (var10 Int) (var11 Addr) (var12 Int) (var13 Addr) (var14 Int) (var15 Int) (var16 Heap)) (or (not (and (and (and (and (and (and (and (and (and (and (and (inv_main97 var16 var15 var14 var13 var12 var11 var10 var9) (= var8 (next (getnode (readHeap var16 var9))))) (= var7 var9)) (= var0 var10)) (= var1 var11)) (= var2 var12)) (= var3 var13)) (= var4 var14)) (= var5 var15)) (= var6 var16)) (is-O_node (readHeap var16 var9))) (not (= var8 var7)))) (inv_main101 var6 var5 var4 var3 var2 var1 var0 var7 var8))))
(assert (forall ((var0 Addr) (var1 Int) (var2 Addr) (var3 Int) (var4 Addr) (var5 Int) (var6 Int) (var7 Heap) (var8 Addr) (var9 Addr) (var10 Addr) (var11 Int) (var12 Addr) (var13 Int) (var14 Addr) (var15 Int) (var16 Int) (var17 Heap) (var18 Addr) (var19 Addr) (var20 Addr) (var21 Addr) (var22 Int) (var23 Addr) (var24 Int) (var25 Addr) (var26 Int) (var27 Int) (var28 Heap)) (or (not (and (and (and (and (and (and (and (and (and (and (and (and (and (and (and (and (and (and (and (and (and (and (inv_main101 var28 var27 var26 var25 var24 var23 var22 var21 var20) (= var19 var8)) (= var0 var9)) (= var18 var10)) (= var1 var11)) (= var2 var12)) (= var3 var13)) (= var4 var14)) (= var5 var15)) (= var6 var16)) (= var7 (writeHeap var17 var9 defObj))) (= var8 (next (getnode (readHeap var28 var20))))) (= var9 var20)) (= var10 var21)) (= var11 var22)) (= var12 var23)) (= var13 var24)) (= var14 var25)) (= var15 var26)) (= var16 var27)) (= var17 var28)) (is-O_node (readHeap var28 var20))) (not (= var19 var18)))) (inv_main101 var7 var6 var5 var4 var3 var2 var1 var18 var19))))
(assert (forall ((var0 Addr) (var1 Int) (var2 Int) (var3 Int) (var4 Addr) (var5 Int) (var6 Int) (var7 Heap)) (or (not (and (and (inv_main68 var7 var6 var5 var4 var3 var2 var1 var0) (is-O_node (readHeap var7 var0))) (is-O_node (readHeap var7 var0)))) (inv_main69 (writeHeap var7 var0 (O_node (node var0 (prev (getnode (readHeap var7 var0))) (data (getnode (readHeap var7 var0)))))) var6 var5 var4 var3 var2 var1 var0))))
(assert (forall ((var0 Addr) (var1 Int) (var2 Int) (var3 Int) (var4 Int) (var5 Int) (var6 Int) (var7 Heap) (var8 Addr) (var9 Addr) (var10 Int) (var11 Int) (var12 Int) (var13 Int) (var14 Addr) (var15 Int) (var16 Int) (var17 Heap)) (or (not (and (and (and (and (and (and (and (and (and (and (and (and (inv_main63 var17 var16 var15 var14 var13 var12 var11 var10 var9) (= var0 var9)) (= var1 var10)) (= var2 var11)) (= var3 var12)) (= var4 var13)) (= var8 var14)) (= var5 var15)) (= var6 var16)) (= var7 (writeHeap var17 var9 (O_node (node (next (getnode (readHeap var17 var9))) (prev (getnode (readHeap var17 var9))) var10))))) (is-O_node (readHeap var17 var9))) (is-O_node (readHeap var17 var9))) (not (= nullAddr var8)))) (inv_main67 var7 var6 var5 var8 var4 var3 var2 var0))))
(assert (forall ((var0 Addr) (var1 Int) (var2 Int) (var3 Int) (var4 Int) (var5 Int) (var6 Heap)) (or (not (and (and (inv_main12 var6 var5 var4 var3 var2 var1 var0) (is-O_node (readHeap var6 var0))) (is-O_node (readHeap var6 var0)))) (inv_main18 (writeHeap var6 var0 (O_node (node nullAddr (prev (getnode (readHeap var6 var0))) (data (getnode (readHeap var6 var0)))))) var5 var4 var3 var2 var1 var0))))
(assert (forall ((var0 Addr) (var1 Int) (var2 Addr) (var3 Addr) (var4 Int) (var5 Int) (var6 Int) (var7 Int) (var8 Heap) (var9 Addr) (var10 Int) (var11 Addr) (var12 Addr) (var13 Int) (var14 Int) (var15 Int) (var16 Int) (var17 Heap)) (or (not (and (and (and (and (and (and (and (and (and (and (and (inv_main36 var17 var16 var15 var14 var13 var12 var11 var10 var9) (= var0 var9)) (= var1 var10)) (= var2 var11)) (= var3 var12)) (= var4 var13)) (= var5 var14)) (= var6 var15)) (= var7 var16)) (= var8 (writeHeap var17 var9 (O_node (node (next (getnode (readHeap var17 var9))) (prev (getnode (readHeap var17 var9))) var10))))) (is-O_node (readHeap var17 var9))) (is-O_node (readHeap var17 var9)))) (inv_main38 var8 var7 var6 var5 var4 var3 var2 var0))))
(assert (forall ((var0 Int) (var1 Addr) (var2 Int) (var3 Int) (var4 Int) (var5 Int) (var6 Int) (var7 Heap)) (or (not (inv_main15 var7 var6 var5 var4 var3 var2 var1 var0)) (inv_main15 var7 var6 var5 var4 var3 var2 var1 var0))))
(assert (forall ((var0 Int) (var1 Int) (var2 Int) (var3 Int) (var4 Int) (var5 node) (var6 Heap) (var7 Addr) (var8 Int) (var9 Int) (var10 Heap)) (or (not (and (and (and (and (and (and (and (and (inv_main4 var10 var9 var8) (= var7 (newAddr (allocHeap var10 (O_node var5))))) (= var0 var8)) (= var1 var8)) (= var2 var9)) (= var3 var8)) (= var4 var9)) (= var6 (newHeap (allocHeap var10 (O_node var5))))) (= nullAddr var7))) (inv_main15 var6 var4 var3 var2 var1 var0 var7 1))))
(assert (forall ((var0 Int) (var1 Int) (var2 Int) (var3 Addr) (var4 Int) (var5 Int) (var6 Heap) (var7 Addr) (var8 Int) (var9 Int) (var10 Int) (var11 Addr) (var12 Int) (var13 Int) (var14 Heap)) (or (not (and (and (and (and (and (and (and (and (and (inv_main69 var14 var13 var12 var11 var10 var9 var8 var7) (= var0 var8)) (= var1 var9)) (= var2 var10)) (= var3 var11)) (= var4 var12)) (= var5 var13)) (= var6 (writeHeap var14 var7 (O_node (node (next (getnode (readHeap var14 var7))) var7 (data (getnode (readHeap var14 var7)))))))) (is-O_node (readHeap var14 var7))) (is-O_node (readHeap var14 var7)))) (inv_main76 var6 var5 var4 var3 var2 var3))))
(assert (forall ((var0 Int) (var1 Int) (var2 Int) (var3 Addr) (var4 Int) (var5 Int) (var6 Heap) (var7 Addr) (var8 Addr) (var9 Addr) (var10 Int) (var11 Int) (var12 Int) (var13 Addr) (var14 Int) (var15 Int) (var16 Heap)) (or (not (and (and (and (and (and (and (and (and (and (inv_main75 var16 var15 var14 var13 var12 var11 var10 var9 var8 var7) (= var0 var10)) (= var1 var11)) (= var2 var12)) (= var3 var13)) (= var4 var14)) (= var5 var15)) (= var6 (writeHeap var16 var9 (O_node (node (next (getnode (readHeap var16 var9))) var8 (data (getnode (readHeap var16 var9)))))))) (is-O_node (readHeap var16 var9))) (is-O_node (readHeap var16 var9)))) (inv_main76 var6 var5 var4 var3 var2 var3))))
(assert (forall ((var0 Addr) (var1 Addr) (var2 Addr) (var3 Int) (var4 Int) (var5 Int) (var6 Addr) (var7 Int) (var8 Int) (var9 Heap)) (or (not (and (and (inv_main73 var9 var8 var7 var6 var5 var4 var3 var2 var1 var0) (is-O_node (readHeap var9 var0))) (is-O_node (readHeap var9 var0)))) (inv_main74 (writeHeap var9 var0 (O_node (node (next (getnode (readHeap var9 var0))) var2 (data (getnode (readHeap var9 var0)))))) var8 var7 var6 var5 var4 var3 var2 var1 var0))))
(assert (forall ((var0 Addr) (var1 Addr) (var2 Int) (var3 Int) (var4 Int) (var5 Int) (var6 Heap)) (or (not (and (and (inv_main23 var6 var5 var4 var3 var2 var1 var0) (is-O_node (readHeap var6 var0))) (is-O_node (readHeap var6 var0)))) (inv_main44 (writeHeap var6 var0 (O_node (node var1 (prev (getnode (readHeap var6 var0))) (data (getnode (readHeap var6 var0)))))) var5 var4 var3 var2 var1 var0))))
(assert (forall ((var0 Addr) (var1 Addr) (var2 Addr) (var3 Int) (var4 Int) (var5 Int) (var6 Addr) (var7 Int) (var8 Int) (var9 Heap)) (or (not (and (and (inv_main72 var9 var8 var7 var6 var5 var4 var3 var2 var1 var0) (is-O_node (readHeap var9 var2))) (is-O_node (readHeap var9 var2)))) (inv_main73 (writeHeap var9 var2 (O_node (node var0 (prev (getnode (readHeap var9 var2))) (data (getnode (readHeap var9 var2)))))) var8 var7 var6 var5 var4 var3 var2 var1 var0))))
(assert (forall ((var0 Addr) (var1 Addr) (var2 Int) (var3 Int) (var4 Int) (var5 Int) (var6 Heap) (var7 Addr) (var8 Addr) (var9 Addr) (var10 Addr) (var11 Int) (var12 Int) (var13 Int) (var14 Int) (var15 Heap)) (or (not (and (and (and (and (and (and (and (and (and (and (and (inv_main38 var15 var14 var13 var12 var11 var10 var9 var8) (= var0 var8)) (= var1 var9)) (= var7 var10)) (= var2 var11)) (= var3 var12)) (= var4 var13)) (= var5 var14)) (= var6 (writeHeap var15 var8 (O_node (node var10 (prev (getnode (readHeap var15 var8))) (data (getnode (readHeap var15 var8)))))))) (is-O_node (readHeap var15 var8))) (is-O_node (readHeap var15 var8))) (not (= var7 nullAddr)))) (inv_main41 var6 var5 var4 var3 var2 var7 var1 var0))))
(assert (forall ((var0 Int) (var1 Addr) (var2 Int) (var3 Addr) (var4 Int) (var5 Int) (var6 Heap)) (or (not (and (and (inv_main82 var6 var5 var4 var3 var2 var1 var0) (= var4 (data (getnode (readHeap var6 var1))))) (is-O_node (readHeap var6 var1)))) (inv_main85 var6 var5 var4 var3 var2 var1 var0))))
(assert (forall ((var0 Addr) (var1 Addr) (var2 Addr) (var3 Int) (var4 Int) (var5 Int) (var6 Addr) (var7 Int) (var8 Int) (var9 Heap)) (or (not (and (and (inv_main74 var9 var8 var7 var6 var5 var4 var3 var2 var1 var0) (is-O_node (readHeap var9 var1))) (is-O_node (readHeap var9 var1)))) (inv_main75 (writeHeap var9 var1 (O_node (node var2 (prev (getnode (readHeap var9 var1))) (data (getnode (readHeap var9 var1)))))) var8 var7 var6 var5 var4 var3 var2 var1 var0))))
(assert (forall ((var0 Addr) (var1 Int) (var2 Int) (var3 Int) (var4 Int) (var5 Int) (var6 Heap)) (not (and (inv_main12 var6 var5 var4 var3 var2 var1 var0) (not (is-O_node (readHeap var6 var0)))))))
(assert (forall ((var0 Addr) (var1 Int) (var2 Int) (var3 Int) (var4 Int) (var5 Int) (var6 Heap)) (not (and (and (inv_main12 var6 var5 var4 var3 var2 var1 var0) (not (is-O_node (readHeap var6 var0)))) (is-O_node (readHeap var6 var0))))))
(assert (forall ((var0 Addr) (var1 Int) (var2 Int) (var3 Int) (var4 Int) (var5 Int) (var6 Heap)) (not (and (inv_main18 var6 var5 var4 var3 var2 var1 var0) (not (is-O_node (readHeap var6 var0)))))))
(assert (forall ((var0 Addr) (var1 Int) (var2 Int) (var3 Int) (var4 Int) (var5 Int) (var6 Heap)) (not (and (and (inv_main18 var6 var5 var4 var3 var2 var1 var0) (not (is-O_node (readHeap var6 var0)))) (is-O_node (readHeap var6 var0))))))
(assert (forall ((var0 Addr) (var1 Int) (var2 Int) (var3 Int) (var4 Int) (var5 Int) (var6 Heap)) (not (and (inv_main19 var6 var5 var4 var3 var2 var1 var0) (not (is-O_node (readHeap var6 var0)))))))
(assert (forall ((var0 Addr) (var1 Int) (var2 Int) (var3 Int) (var4 Int) (var5 Int) (var6 Heap)) (not (and (and (inv_main19 var6 var5 var4 var3 var2 var1 var0) (not (is-O_node (readHeap var6 var0)))) (is-O_node (readHeap var6 var0))))))
(assert (forall ((var0 Addr) (var1 Int) (var2 Addr) (var3 Addr) (var4 Int) (var5 Int) (var6 Int) (var7 Int) (var8 Heap)) (not (and (inv_main29 var8 var7 var6 var5 var4 var3 var2 var1 var0) (not (is-O_node (readHeap var8 var0)))))))
(assert (forall ((var0 Addr) (var1 Int) (var2 Addr) (var3 Addr) (var4 Int) (var5 Int) (var6 Int) (var7 Int) (var8 Heap)) (not (and (and (inv_main29 var8 var7 var6 var5 var4 var3 var2 var1 var0) (not (is-O_node (readHeap var8 var0)))) (is-O_node (readHeap var8 var0))))))
(assert (forall ((var0 Addr) (var1 Int) (var2 Addr) (var3 Addr) (var4 Int) (var5 Int) (var6 Int) (var7 Int) (var8 Heap)) (not (and (inv_main35 var8 var7 var6 var5 var4 var3 var2 var1 var0) (not (is-O_node (readHeap var8 var0)))))))
(assert (forall ((var0 Addr) (var1 Int) (var2 Addr) (var3 Addr) (var4 Int) (var5 Int) (var6 Int) (var7 Int) (var8 Heap)) (not (and (and (inv_main35 var8 var7 var6 var5 var4 var3 var2 var1 var0) (not (is-O_node (readHeap var8 var0)))) (is-O_node (readHeap var8 var0))))))
(assert (forall ((var0 Addr) (var1 Int) (var2 Addr) (var3 Addr) (var4 Int) (var5 Int) (var6 Int) (var7 Int) (var8 Heap)) (not (and (inv_main36 var8 var7 var6 var5 var4 var3 var2 var1 var0) (not (is-O_node (readHeap var8 var0)))))))
(assert (forall ((var0 Addr) (var1 Int) (var2 Addr) (var3 Addr) (var4 Int) (var5 Int) (var6 Int) (var7 Int) (var8 Heap)) (not (and (and (inv_main36 var8 var7 var6 var5 var4 var3 var2 var1 var0) (not (is-O_node (readHeap var8 var0)))) (is-O_node (readHeap var8 var0))))))
(assert (forall ((var0 Addr) (var1 Addr) (var2 Addr) (var3 Int) (var4 Int) (var5 Int) (var6 Int) (var7 Heap)) (not (and (inv_main38 var7 var6 var5 var4 var3 var2 var1 var0) (not (is-O_node (readHeap var7 var0)))))))
(assert (forall ((var0 Addr) (var1 Addr) (var2 Addr) (var3 Int) (var4 Int) (var5 Int) (var6 Int) (var7 Heap)) (not (and (and (inv_main38 var7 var6 var5 var4 var3 var2 var1 var0) (not (is-O_node (readHeap var7 var0)))) (is-O_node (readHeap var7 var0))))))
(assert (forall ((var0 Addr) (var1 Addr) (var2 Addr) (var3 Int) (var4 Int) (var5 Int) (var6 Int) (var7 Heap)) (not (and (inv_main41 var7 var6 var5 var4 var3 var2 var1 var0) (not (is-O_node (readHeap var7 var2)))))))
(assert (forall ((var0 Addr) (var1 Addr) (var2 Addr) (var3 Int) (var4 Int) (var5 Int) (var6 Int) (var7 Heap)) (not (and (and (inv_main41 var7 var6 var5 var4 var3 var2 var1 var0) (not (is-O_node (readHeap var7 var2)))) (is-O_node (readHeap var7 var2))))))
(assert (forall ((var0 Addr) (var1 Addr) (var2 Int) (var3 Int) (var4 Int) (var5 Int) (var6 Heap)) (not (and (inv_main23 var6 var5 var4 var3 var2 var1 var0) (not (is-O_node (readHeap var6 var0)))))))
(assert (forall ((var0 Addr) (var1 Addr) (var2 Int) (var3 Int) (var4 Int) (var5 Int) (var6 Heap)) (not (and (and (inv_main23 var6 var5 var4 var3 var2 var1 var0) (not (is-O_node (readHeap var6 var0)))) (is-O_node (readHeap var6 var0))))))
(assert (forall ((var0 Addr) (var1 Addr) (var2 Int) (var3 Int) (var4 Int) (var5 Int) (var6 Heap)) (not (and (inv_main44 var6 var5 var4 var3 var2 var1 var0) (not (is-O_node (readHeap var6 var1)))))))
(assert (forall ((var0 Addr) (var1 Addr) (var2 Int) (var3 Int) (var4 Int) (var5 Int) (var6 Heap)) (not (and (and (inv_main44 var6 var5 var4 var3 var2 var1 var0) (not (is-O_node (readHeap var6 var1)))) (is-O_node (readHeap var6 var1))))))
(assert (forall ((var0 Addr) (var1 Int) (var2 Int) (var3 Int) (var4 Int) (var5 Addr) (var6 Int) (var7 Int) (var8 Heap)) (not (and (inv_main56 var8 var7 var6 var5 var4 var3 var2 var1 var0) (not (is-O_node (readHeap var8 var0)))))))
(assert (forall ((var0 Addr) (var1 Int) (var2 Int) (var3 Int) (var4 Int) (var5 Addr) (var6 Int) (var7 Int) (var8 Heap)) (not (and (and (inv_main56 var8 var7 var6 var5 var4 var3 var2 var1 var0) (not (is-O_node (readHeap var8 var0)))) (is-O_node (readHeap var8 var0))))))
(assert (forall ((var0 Addr) (var1 Int) (var2 Int) (var3 Int) (var4 Int) (var5 Addr) (var6 Int) (var7 Int) (var8 Heap)) (not (and (inv_main62 var8 var7 var6 var5 var4 var3 var2 var1 var0) (not (is-O_node (readHeap var8 var0)))))))
(assert (forall ((var0 Addr) (var1 Int) (var2 Int) (var3 Int) (var4 Int) (var5 Addr) (var6 Int) (var7 Int) (var8 Heap)) (not (and (and (inv_main62 var8 var7 var6 var5 var4 var3 var2 var1 var0) (not (is-O_node (readHeap var8 var0)))) (is-O_node (readHeap var8 var0))))))
(assert (forall ((var0 Addr) (var1 Int) (var2 Int) (var3 Int) (var4 Int) (var5 Addr) (var6 Int) (var7 Int) (var8 Heap)) (not (and (inv_main63 var8 var7 var6 var5 var4 var3 var2 var1 var0) (not (is-O_node (readHeap var8 var0)))))))
(assert (forall ((var0 Addr) (var1 Int) (var2 Int) (var3 Int) (var4 Int) (var5 Addr) (var6 Int) (var7 Int) (var8 Heap)) (not (and (and (inv_main63 var8 var7 var6 var5 var4 var3 var2 var1 var0) (not (is-O_node (readHeap var8 var0)))) (is-O_node (readHeap var8 var0))))))
(assert (forall ((var0 Addr) (var1 Int) (var2 Int) (var3 Int) (var4 Addr) (var5 Int) (var6 Int) (var7 Heap)) (not (and (inv_main68 var7 var6 var5 var4 var3 var2 var1 var0) (not (is-O_node (readHeap var7 var0)))))))
(assert (forall ((var0 Addr) (var1 Int) (var2 Int) (var3 Int) (var4 Addr) (var5 Int) (var6 Int) (var7 Heap)) (not (and (and (inv_main68 var7 var6 var5 var4 var3 var2 var1 var0) (not (is-O_node (readHeap var7 var0)))) (is-O_node (readHeap var7 var0))))))
(assert (forall ((var0 Addr) (var1 Int) (var2 Int) (var3 Int) (var4 Addr) (var5 Int) (var6 Int) (var7 Heap)) (not (and (inv_main69 var7 var6 var5 var4 var3 var2 var1 var0) (not (is-O_node (readHeap var7 var0)))))))
(assert (forall ((var0 Addr) (var1 Int) (var2 Int) (var3 Int) (var4 Addr) (var5 Int) (var6 Int) (var7 Heap)) (not (and (and (inv_main69 var7 var6 var5 var4 var3 var2 var1 var0) (not (is-O_node (readHeap var7 var0)))) (is-O_node (readHeap var7 var0))))))
(assert (forall ((var0 Addr) (var1 Int) (var2 Int) (var3 Int) (var4 Addr) (var5 Int) (var6 Int) (var7 Heap)) (not (and (inv_main67 var7 var6 var5 var4 var3 var2 var1 var0) (not (is-O_node (readHeap var7 var4)))))))
(assert (forall ((var0 Addr) (var1 Addr) (var2 Addr) (var3 Int) (var4 Int) (var5 Int) (var6 Addr) (var7 Int) (var8 Int) (var9 Heap)) (not (and (inv_main72 var9 var8 var7 var6 var5 var4 var3 var2 var1 var0) (not (is-O_node (readHeap var9 var2)))))))
(assert (forall ((var0 Addr) (var1 Addr) (var2 Addr) (var3 Int) (var4 Int) (var5 Int) (var6 Addr) (var7 Int) (var8 Int) (var9 Heap)) (not (and (and (inv_main72 var9 var8 var7 var6 var5 var4 var3 var2 var1 var0) (not (is-O_node (readHeap var9 var2)))) (is-O_node (readHeap var9 var2))))))
(assert (forall ((var0 Addr) (var1 Addr) (var2 Addr) (var3 Int) (var4 Int) (var5 Int) (var6 Addr) (var7 Int) (var8 Int) (var9 Heap)) (not (and (inv_main73 var9 var8 var7 var6 var5 var4 var3 var2 var1 var0) (not (is-O_node (readHeap var9 var0)))))))
(assert (forall ((var0 Addr) (var1 Addr) (var2 Addr) (var3 Int) (var4 Int) (var5 Int) (var6 Addr) (var7 Int) (var8 Int) (var9 Heap)) (not (and (and (inv_main73 var9 var8 var7 var6 var5 var4 var3 var2 var1 var0) (not (is-O_node (readHeap var9 var0)))) (is-O_node (readHeap var9 var0))))))
(assert (forall ((var0 Addr) (var1 Addr) (var2 Addr) (var3 Int) (var4 Int) (var5 Int) (var6 Addr) (var7 Int) (var8 Int) (var9 Heap)) (not (and (inv_main74 var9 var8 var7 var6 var5 var4 var3 var2 var1 var0) (not (is-O_node (readHeap var9 var1)))))))
(assert (forall ((var0 Addr) (var1 Addr) (var2 Addr) (var3 Int) (var4 Int) (var5 Int) (var6 Addr) (var7 Int) (var8 Int) (var9 Heap)) (not (and (and (inv_main74 var9 var8 var7 var6 var5 var4 var3 var2 var1 var0) (not (is-O_node (readHeap var9 var1)))) (is-O_node (readHeap var9 var1))))))
(assert (forall ((var0 Addr) (var1 Addr) (var2 Addr) (var3 Int) (var4 Int) (var5 Int) (var6 Addr) (var7 Int) (var8 Int) (var9 Heap)) (not (and (inv_main75 var9 var8 var7 var6 var5 var4 var3 var2 var1 var0) (not (is-O_node (readHeap var9 var2)))))))
(assert (forall ((var0 Addr) (var1 Addr) (var2 Addr) (var3 Int) (var4 Int) (var5 Int) (var6 Addr) (var7 Int) (var8 Int) (var9 Heap)) (not (and (and (inv_main75 var9 var8 var7 var6 var5 var4 var3 var2 var1 var0) (not (is-O_node (readHeap var9 var2)))) (is-O_node (readHeap var9 var2))))))
(assert (forall ((var0 Addr) (var1 Int) (var2 Addr) (var3 Int) (var4 Int) (var5 Heap)) (not (and (inv_main76 var5 var4 var3 var2 var1 var0) (not (is-O_node (readHeap var5 var0)))))))
(assert (forall ((var0 Addr) (var1 Int) (var2 Addr) (var3 Int) (var4 Int) (var5 Heap)) (not (and (inv_main77 var5 var4 var3 var2 var1 var0) (not (is-O_node (readHeap var5 var0)))))))
(assert (forall ((var0 Int) (var1 Addr) (var2 Int) (var3 Addr) (var4 Int) (var5 Int) (var6 Heap)) (not (and (inv_main82 var6 var5 var4 var3 var2 var1 var0) (not (is-O_node (readHeap var6 var1)))))))
(assert (forall ((var0 Int) (var1 Addr) (var2 Int) (var3 Addr) (var4 Int) (var5 Int) (var6 Heap)) (not (and (inv_main85 var6 var5 var4 var3 var2 var1 var0) (not (is-O_node (readHeap var6 var1)))))))
(assert (forall ((var0 Addr) (var1 Int) (var2 Addr) (var3 Int) (var4 Addr) (var5 Int) (var6 Int) (var7 Heap)) (not (and (inv_main97 var7 var6 var5 var4 var3 var2 var1 var0) (not (is-O_node (readHeap var7 var0)))))))
(assert (forall ((var0 Addr) (var1 Addr) (var2 Int) (var3 Addr) (var4 Int) (var5 Addr) (var6 Int) (var7 Int) (var8 Heap)) (not (and (inv_main101 var8 var7 var6 var5 var4 var3 var2 var1 var0) (not (is-O_node (readHeap var8 var0)))))))
(assert (forall ((var0 Int) (var1 Addr) (var2 Int) (var3 Addr) (var4 Int) (var5 Int) (var6 Heap)) (not (inv_main104 var6 var5 var4 var3 var2 var1 var0))))
(check-sat)
